projected/problems_b25_r0_d7_m100_s666/_DIMACS/b25_d7_r0_s666_064.cnf
p cnf 295 561 25
c p show 1 2 3 4 5 6 7 8 9 10 11 12 13 14 15 16 17 18 19 20 21 22 23 24 25
-295 4 5 0
-26 -10 0
-26 4 0
-27 26 0
-27 295 0
-28 -1 0
-28 3 0
-29 -3 0
-29 1 0
-30 29 28 0
-31 5 0
-31 23 0
-32 31 30 0
-33 32 27 0
-34 -14 -19 0
-35 14 0
-35 -8 0
-36 35 0
-36 34 0
-37 21 -25 0
-38 -20 0
-39 38 37 0
-40 39 0
-40 36 0
-41 40 0
-41 33 0
-42 -22 0
-42 5 0
-43 -1 12 0
-44 43 0
-44 42 0
-45 -13 0
-45 -16 0
-46 -13 15 0
-47 46 0
-47 45 0
-48 47 0
-48 44 0
-49 -10 0
-49 13 0
-50 -19 0
-50 1 0
-51 50 49 0
-52 5 -3 0
-53 15 0
-53 -4 0
-54 53 0
-54 52 0
-55 54 51 0
-56 55 0
-56 48 0
-57 10 -13 0
-58 19 -1 0
-59 58 0
-59 57 0
-60 -5 0
-60 3 0
-61 -15 4 0
-62 61 60 0
-63 62 0
-63 59 0
-64 22 -5 0
-65 1 0
-65 -12 0
-66 65 64 0
-67 13 16 0
-68 13 0
-68 -15 0
-69 68 67 0
-70 69 66 0
-71 70 0
-71 63 0
-72 71 56 0
-73 72 0
-73 41 0
-74 3 0
-74 21 0
-75 11 -22 0
-76 75 74 0
-77 11 0
-77 -23 0
-78 -16 0
-78 8 0
-79 78 0
-79 77 0
-80 79 76 0
-81 -2 0
-81 6 0
-82 -24 -7 0
-83 82 81 0
-84 24 0
-84 7 0
-85 2 -6 0
-86 85 84 0
-87 86 0
-87 83 0
-88 -8 0
-88 -16 0
-89 -7 0
-89 8 0
-90 89 0
-90 88 0
-91 90 0
-91 87 0
-92 91 80 0
-93 -15 0
-93 -23 0
-94 -14 9 0
-95 94 0
-95 93 0
-96 12 0
-97 2 0
-97 21 0
-98 97 96 0
-99 98 95 0
-100 -16 0
-100 -7 0
-101 15 0
-101 24 0
-102 101 100 0
-103 19 11 0
-104 -11 15 0
-105 104 0
-105 103 0
-106 105 102 0
-107 106 99 0
-108 107 92 0
-109 15 23 0
-110 14 0
-110 -9 0
-111 110 109 0
-112 -12 0
-113 -2 -21 0
-114 113 0
-114 112 0
-115 114 0
-115 111 0
-116 16 7 0
-117 -15 -24 0
-118 117 0
-118 116 0
-119 -19 0
-119 -11 0
-120 11 0
-120 -15 0
-121 120 119 0
-122 121 0
-122 118 0
-123 122 0
-123 115 0
-124 -3 -21 0
-125 -11 0
-125 22 0
-126 125 0
-126 124 0
-127 -11 23 0
-128 16 -8 0
-129 128 127 0
-130 129 0
-130 126 0
-131 84 0
-131 85 0
-132 81 0
-132 82 0
-133 132 131 0
-134 8 16 0
-135 7 -8 0
-136 135 134 0
-137 136 133 0
-138 137 0
-138 130 0
-139 138 123 0
-140 139 0
-140 108 0
-141 140 73 0
-142 3 0
-142 -3 0
-143 17 0
-143 -24 0
-144 143 0
-144 142 0
-145 -6 21 0
-146 -3 0
-146 16 0
-147 146 0
-147 145 0
-148 147 144 0
-149 23 25 0
-150 15 0
-150 -7 0
-151 150 0
-151 149 0
-152 -16 0
-152 -23 0
-153 -8 0
-153 -1 0
-154 153 0
-154 152 0
-155 154 0
-155 151 0
-156 155 0
-156 148 0
-157 18 0
-157 -22 0
-158 16 25 0
-159 158 0
-159 157 0
-160 2 0
-160 -23 0
-161 -22 -14 0
-162 161 160 0
-163 162 159 0
-164 -4 0
-164 25 0
-165 -23 -14 0
-166 165 164 0
-167 22 0
-167 1 0
-168 19 0
-168 4 0
-169 168 167 0
-170 169 166 0
-171 170 163 0
-172 171 156 0
-173 -18 22 0
-174 -16 0
-174 -25 0
-175 174 173 0
-176 -2 23 0
-177 22 0
-177 14 0
-178 177 0
-178 176 0
-179 178 0
-179 175 0
-180 4 -25 0
-181 23 0
-181 14 0
-182 181 0
-182 180 0
-183 -22 -1 0
-184 -19 -4 0
-185 184 0
-185 183 0
-186 185 0
-186 182 0
-187 186 0
-187 179 0
-188 -3 3 0
-189 -17 24 0
-190 189 188 0
-191 6 0
-191 -21 0
-192 3 -16 0
-193 192 191 0
-194 193 0
-194 190 0
-195 -23 0
-195 -25 0
-196 -15 7 0
-197 196 195 0
-198 16 23 0
-199 8 1 0
-200 199 198 0
-201 200 197 0
-202 201 194 0
-203 202 187 0
-204 203 0
-204 172 0
-205 -18 0
-205 2 0
-206 -2 0
-206 18 0
-207 206 205 0
-208 16 0
-208 13 0
-209 208 0
-209 207 0
-210 4 0
-210 23 0
-211 -23 0
-211 -4 0
-212 211 210 0
-213 117 212 0
-214 213 0
-214 209 0
-215 -11 0
-215 24 0
-216 -20 0
-216 5 0
-217 216 0
-217 215 0
-218 8 0
-218 24 0
-219 13 0
-219 19 0
-220 219 0
-220 218 0
-221 220 217 0
-222 221 214 0
-223 11 -24 0
-224 20 -5 0
-225 224 223 0
-226 -8 -24 0
-227 -13 -19 0
-228 227 226 0
-229 228 0
-229 225 0
-230 18 -2 0
-231 2 -18 0
-232 231 0
-232 230 0
-233 -16 -13 0
-234 233 232 0
-235 -4 -23 0
-236 23 4 0
-237 236 0
-237 235 0
-238 101 0
-238 237 0
-239 238 234 0
-240 239 229 0
-241 240 0
-241 222 0
-242 -4 21 0
-243 2 -21 0
-244 243 242 0
-245 17 0
-245 -23 0
-246 8 0
-246 14 0
-247 246 0
-247 245 0
-248 -8 -14 0
-249 -17 23 0
-250 249 0
-250 248 0
-251 250 247 0
-252 251 244 0
-253 248 249 0
-254 245 246 0
-255 254 0
-255 253 0
-256 4 0
-256 -21 0
-257 -2 0
-257 21 0
-258 257 0
-258 256 0
-259 258 255 0
-260 259 0
-260 252 0
-261 11 0
-261 -5 0
-262 11 0
-262 2 0
-263 -2 0
-263 -11 0
-264 263 262 0
-265 264 0
-265 261 0
-266 -8 24 0
-267 -21 -4 0
-268 267 0
-268 266 0
-269 268 265 0
-270 269 0
-270 260 0
-271 270 241 0
-272 271 0
-272 204 0
-273 229 0
-273 239 0
-274 214 0
-274 221 0
-275 274 273 0
-276 255 0
-276 258 0
-277 244 0
-277 251 0
-278 277 276 0
-279 -11 5 0
-280 -11 -2 0
-281 2 11 0
-282 281 0
-282 280 0
-283 282 279 0
-284 8 0
-284 -24 0
-285 21 0
-285 4 0
-286 285 284 0
-287 286 0
-287 283 0
-288 287 278 0
-289 288 0
-289 275 0
-290 187 0
-290 202 0
-291 156 0
-291 171 0
-292 291 290 0
-293 292 0
-293 289 0
-294 293 272 0
294 0
141 0
-49 -57 0
-50 -58 0
-51 -59 0
-59 -51 0
-52 -60 0
-53 -61 0
-54 -62 0
-62 -54 0
-63 -55 0
-55 -63 0
-42 -64 0
-65 -43 0
-43 -65 0
-44 -66 0
-66 -44 0
-67 -45 0
-45 -67 0
-46 -68 0
-47 -69 0
-69 -47 0
-70 -48 0
-93 -109 0
-94 -110 0
-95 -111 0
-112 -96 0
-96 -112 0
-113 -97 0
-97 -113 0
-98 -114 0
-99 -115 0
-115 -99 0
-100 -116 0
-117 -101 0
-101 -117 0
-102 -118 0
-103 -119 0
-119 -103 0
-120 -104 0
-121 -105 0
-105 -121 0
-106 -122 0
-122 -106 0
-123 -107 0
-124 -74 0
-74 -124 0
-75 -125 0
-76 -126 0
-126 -76 0
-127 -77 0
-77 -127 0
-78 -128 0
-79 -129 0
-129 -79 0
-130 -80 0
-80 -130 0
-82 -84 0
-84 -82 0
-81 -85 0
-87 -133 0
-88 -134 0
-135 -89 0
-89 -135 0
-90 -136 0
-91 -137 0
-92 -138 0
-215 -223 0
-223 -215 0
-216 -224 0
-224 -216 0
-225 -217 0
-218 -226 0
-219 -227 0
-220 -228 0
-228 -220 0
-229 -221 0
-232 -207 0
-207 -232 0
-233 -208 0
-208 -233 0
-209 -234 0
-237 -212 0
-238 -213 0
-213 -238 0
-214 -239 0
-241 -275 0
-248 -246 0
-246 -248 0
-249 -245 0
-255 -251 0
-256 -242 0
-243 -257 0
-257 -243 0
-258 -244 0
-244 -258 0
-260 -278 0
-279 -261 0
-282 -264 0
-283 -265 0
-265 -283 0
-284 -266 0
-267 -285 0
-285 -267 0
-286 -268 0
-268 -286 0
-269 -287 0
-270 -288 0
-271 -289 0
-173 -157 0
-157 -173 0
-158 -174 0
-159 -175 0
-175 -159 0
-160 -176 0
-177 -161 0
-161 -177 0
-162 -178 0
-178 -162 0
-179 -163 0
-180 -164 0
-164 -180 0
-165 -181 0
-166 -182 0
-183 -167 0
-167 -183 0
-168 -184 0
-169 -185 0
-170 -186 0
-186 -170 0
-187 -171 0
-188 -142 0
-142 -188 0
-189 -143 0
-143 -189 0
-144 -190 0
-145 -191 0
-191 -145 0
-192 -146 0
-193 -147 0
-147 -193 0
-148 -194 0
-194 -148 0
-195 -149 0
-196 -150 0
-197 -151 0
-198 -152 0
-152 -198 0
-153 -199 0
-154 -200 0
-200 -154 0
-201 -155 0
-202 -156 0
-156 -202 0
-204 -292 0
-292 -204 0
