projected/problems_b25_r0_d7_m100_s666/b25_d7_r0_s666_064.smt2
(set-logic QF_UF)
(declare-fun A0 () Bool)
(declare-fun A1 () Bool)
(declare-fun A2 () Bool)
(declare-fun A3 () Bool)
(declare-fun A4 () Bool)
(declare-fun A5 () Bool)
(declare-fun A6 () Bool)
(declare-fun A7 () Bool)
(declare-fun A8 () Bool)
(declare-fun A9 () Bool)
(declare-fun A10 () Bool)
(declare-fun A11 () Bool)
(declare-fun A12 () Bool)
(declare-fun A13 () Bool)
(declare-fun A14 () Bool)
(declare-fun A15 () Bool)
(declare-fun A16 () Bool)
(declare-fun A17 () Bool)
(declare-fun A18 () Bool)
(declare-fun A19 () Bool)
(declare-fun A20 () Bool)
(declare-fun A21 () Bool)
(declare-fun A22 () Bool)
(declare-fun A23 () Bool)
(declare-fun A24 () Bool)
(assert (let ((.def_0 (or A3 A4))) (let ((.def_1 (not .def_0))) (let ((.def_2 (not A3))) (let ((.def_3 (or A9 .def_2))) (let ((.def_4 (or .def_3 .def_1))) (let ((.def_5 (not A0))) (let ((.def_6 (not A2))) (let ((.def_7 (= .def_6 .def_5))) (let ((.def_8 (not .def_7))) (let ((.def_9 (and A4 A22))) (let ((.def_10 (or .def_9 .def_8))) (let ((.def_11 (not .def_10))) (let ((.def_12 (and .def_11 .def_4))) (let ((.def_13 (not .def_12))) (let ((.def_14 (and A13 A18))) (let ((.def_15 (not .def_14))) (let ((.def_16 (not A7))) (let ((.def_17 (and A13 .def_16))) (let ((.def_18 (and .def_17 .def_15))) (let ((.def_19 (not .def_18))) (let ((.def_20 (not A24))) (let ((.def_21 (or A20 .def_20))) (let ((.def_22 (not .def_21))) (let ((.def_23 (not A19))) (let ((.def_24 (and .def_23 .def_23))) (let ((.def_25 (not .def_24))) (let ((.def_26 (and .def_25 .def_22))) (let ((.def_27 (or .def_26 .def_19))) (let ((.def_28 (not .def_27))) (let ((.def_29 (and .def_28 .def_13))) (let ((.def_30 (not .def_29))) (let ((.def_31 (not A9))) (let ((.def_32 (and .def_31 A12))) (let ((.def_33 (not A18))) (let ((.def_34 (and .def_33 A0))) (let ((.def_35 (or .def_34 .def_32))) (let ((.def_36 (not .def_35))) (let ((.def_37 (or A4 .def_6))) (let ((.def_38 (and A14 .def_2))) (let ((.def_39 (and .def_38 .def_37))) (let ((.def_40 (not .def_39))) (let ((.def_41 (and .def_40 .def_36))) (let ((.def_42 (not .def_41))) (let ((.def_43 (not A21))) (let ((.def_44 (and .def_43 A4))) (let ((.def_45 (not A11))) (let ((.def_46 (and A0 .def_45))) (let ((.def_47 (not .def_46))) (let ((.def_48 (and .def_47 .def_44))) (let ((.def_49 (not .def_48))) (let ((.def_50 (or A12 A15))) (let ((.def_51 (not .def_50))) (let ((.def_52 (not A12))) (let ((.def_53 (or .def_52 A14))) (let ((.def_54 (and .def_53 .def_51))) (let ((.def_55 (not .def_54))) (let ((.def_56 (or .def_55 .def_49))) (let ((.def_57 (= .def_56 .def_42))) (let ((.def_58 (or .def_57 .def_30))) (let ((.def_59 (not .def_58))) (let ((.def_60 (not A22))) (let ((.def_61 (not A14))) (let ((.def_62 (and .def_61 .def_60))) (let ((.def_63 (not A13))) (let ((.def_64 (or .def_63 A8))) (let ((.def_65 (and .def_64 .def_62))) (let ((.def_66 (or .def_45 .def_45))) (let ((.def_67 (not .def_66))) (let ((.def_68 (not A20))) (let ((.def_69 (not A1))) (let ((.def_70 (or .def_69 .def_68))) (let ((.def_71 (not .def_70))) (let ((.def_72 (or .def_71 .def_67))) (let ((.def_73 (or .def_72 .def_65))) (let ((.def_74 (not .def_73))) (let ((.def_75 (not A6))) (let ((.def_76 (not A15))) (let ((.def_77 (and .def_76 .def_75))) (let ((.def_78 (not A23))) (let ((.def_79 (or .def_61 .def_78))) (let ((.def_80 (not .def_79))) (let ((.def_81 (or .def_80 .def_77))) (let ((.def_82 (or A18 A10))) (let ((.def_83 (not .def_82))) (let ((.def_84 (and A10 .def_61))) (let ((.def_85 (or .def_84 .def_83))) (let ((.def_86 (not .def_85))) (let ((.def_87 (or .def_86 .def_81))) (let ((.def_88 (not .def_87))) (let ((.def_89 (and .def_88 .def_74))) (let ((.def_90 (or .def_6 .def_68))) (let ((.def_91 (not .def_90))) (let ((.def_92 (or A10 .def_43))) (let ((.def_93 (or .def_92 .def_91))) (let ((.def_94 (not .def_93))) (let ((.def_95 (not A10))) (let ((.def_96 (or .def_95 A22))) (let ((.def_97 (not .def_96))) (let ((.def_98 (and .def_76 A7))) (let ((.def_99 (and .def_98 .def_97))) (let ((.def_100 (not .def_99))) (let ((.def_101 (and .def_100 .def_94))) (let ((.def_102 (not .def_101))) (let ((.def_103 (or .def_78 .def_75))) (let ((.def_104 (not .def_103))) (let ((.def_105 (and .def_69 A5))) (let ((.def_106 (= .def_105 .def_104))) (let ((.def_107 (and .def_16 .def_76))) (let ((.def_108 (or A6 .def_16))) (let ((.def_109 (not .def_108))) (let ((.def_110 (and .def_109 .def_107))) (let ((.def_111 (and .def_110 .def_106))) (let ((.def_112 (or .def_111 .def_102))) (let ((.def_113 (= .def_112 .def_89))) (let ((.def_114 (or .def_113 .def_59))) (let ((.def_115 (not .def_114))) (let ((.def_116 (and .def_95 A23))) (let ((.def_117 (not .def_116))) (let ((.def_118 (and .def_23 A4))) (let ((.def_119 (not .def_118))) (let ((.def_120 (or .def_119 .def_117))) (let ((.def_121 (and A7 A23))) (let ((.def_122 (and A12 A18))) (let ((.def_123 (and .def_122 .def_121))) (let ((.def_124 (not .def_123))) (let ((.def_125 (and .def_124 .def_120))) (let ((.def_126 (not A17))) (let ((.def_127 (= .def_69 .def_126))) (let ((.def_128 (not .def_127))) (let ((.def_129 (or .def_76 .def_52))) (let ((.def_130 (not .def_129))) (let ((.def_131 (and .def_130 .def_128))) (let ((.def_132 (= .def_60 A3))) (let ((.def_133 (and A14 A23))) (let ((.def_134 (and .def_133 .def_132))) (let ((.def_135 (not .def_134))) (let ((.def_136 (and .def_135 .def_131))) (let ((.def_137 (= .def_136 .def_125))) (let ((.def_138 (or .def_16 .def_63))) (let ((.def_139 (not .def_138))) (let ((.def_140 (not A16))) (let ((.def_141 (or .def_140 A22))) (let ((.def_142 (= .def_141 .def_139))) (let ((.def_143 (and A3 .def_68))) (let ((.def_144 (or A1 .def_68))) (let ((.def_145 (not .def_144))) (let ((.def_146 (and .def_145 .def_143))) (let ((.def_147 (not .def_146))) (let ((.def_148 (= .def_147 .def_142))) (let ((.def_149 (or .def_95 A4))) (let ((.def_150 (= .def_69 A10))) (let ((.def_151 (or .def_150 .def_149))) (let ((.def_152 (not .def_151))) (let ((.def_153 (and A7 .def_78))) (let ((.def_154 (or .def_68 .def_2))) (let ((.def_155 (not .def_154))) (let ((.def_156 (or .def_155 .def_153))) (let ((.def_157 (not .def_156))) (let ((.def_158 (or .def_157 .def_152))) (let ((.def_159 (and .def_158 .def_148))) (let ((.def_160 (or .def_159 .def_137))) (let ((.def_161 (or .def_126 A21))) (let ((.def_162 (not .def_161))) (let ((.def_163 (or A15 A24))) (let ((.def_164 (and .def_163 .def_162))) (let ((.def_165 (not .def_164))) (let ((.def_166 (and A1 .def_60))) (let ((.def_167 (and A21 A13))) (let ((.def_168 (not .def_167))) (let ((.def_169 (or .def_168 .def_166))) (let ((.def_170 (not .def_169))) (let ((.def_171 (and .def_170 .def_165))) (let ((.def_172 (or A3 .def_20))) (let ((.def_173 (not .def_172))) (let ((.def_174 (or .def_60 .def_63))) (let ((.def_175 (or .def_174 .def_173))) (let ((.def_176 (or .def_43 .def_5))) (let ((.def_177 (not .def_176))) (let ((.def_178 (and A18 A3))) (let ((.def_179 (or .def_178 .def_177))) (let ((.def_180 (or .def_179 .def_175))) (let ((.def_181 (not .def_180))) (let ((.def_182 (and .def_181 .def_171))) (let ((.def_183 (or .def_6 A2))) (let ((.def_184 (not .def_183))) (let ((.def_185 (or .def_140 A23))) (let ((.def_186 (not .def_185))) (let ((.def_187 (and .def_186 .def_184))) (let ((.def_188 (not A5))) (let ((.def_189 (or .def_188 A20))) (let ((.def_190 (not .def_189))) (let ((.def_191 (or A2 .def_76))) (let ((.def_192 (or .def_191 .def_190))) (let ((.def_193 (not .def_192))) (let ((.def_194 (or .def_193 .def_187))) (let ((.def_195 (not .def_194))) (let ((.def_196 (and .def_60 .def_20))) (let ((.def_197 (or .def_61 A6))) (let ((.def_198 (or .def_197 .def_196))) (let ((.def_199 (or A15 A22))) (let ((.def_200 (not .def_199))) (let ((.def_201 (and .def_16 .def_5))) (let ((.def_202 (and .def_201 .def_200))) (let ((.def_203 (not .def_202))) (let ((.def_204 (or .def_203 .def_198))) (let ((.def_205 (or .def_204 .def_195))) (let ((.def_206 (not .def_205))) (let ((.def_207 (= .def_206 .def_182))) (let ((.def_208 (not .def_207))) (let ((.def_209 (= .def_208 .def_160))) (let ((.def_210 (or .def_209 .def_115))) (let ((.def_211 (not .def_210))) .def_211)))))))))))))))))))))))))))))))))))))))))))))))))))))))))))))))))))))))))))))))))))))))))))))))))))))))))))))))))))))))))))))))))))))))))))))))))))))))))))))))))))))))))))))))))))))))))))))))))))))))))))))))))))))
(check-sat)
